c FILE /home/rafael/Documents/HappySet/MIHS/inputs/happygen/output/graph_d_regular_k7_p0.1_v100_20241127_084053.txt
c SOURCE This is a d-regular graph formed for the happy graph colouring problem.
c DESCRIPTION It was generated using the problem generator of Rhyd Lewis
c
c GRAPH STATS
c Seed                             = 744648255
c Number of Nodes                  = 100
c Number of colours k              = 7
c Number of pre-assignments        = 10
c Degree of all vertices           = 6
c Density                          = 0.0606061
c 
c The degrees of nodes 1 to 100, respectively, are as follows 
c [6, 6, 6, 6, 6, 6, 6, 6, 6, 6, 6, 6, 6, 6, 6, 6, 6, 6, 6, 6, 6, 6, 6, 6, 6, 6, 
c  6, 6, 6, 6, 6, 6, 6, 6, 6, 6, 6, 6, 6, 6, 6, 6, 6, 6, 6, 6, 6, 6, 6, 6, 6, 
c  6, 6, 6, 6, 6, 6, 6, 6, 6, 6, 6, 6, 6, 6, 6, 6, 6, 6, 6, 6, 6, 6, 6, 6, 6, 
c  6, 6, 6, 6, 6, 6, 6, 6, 6, 6, 6, 6, 6, 6, 6, 6, 6, 6, 6, 6, 6, 6, 6, 6] 
c  
p edge 100 300 7
e 1 26
e 1 27
e 1 36
e 1 47
e 1 51
e 1 88
e 2 49
e 2 74
e 2 76
e 2 79
e 2 90
e 2 100
e 3 10
e 3 23
e 3 28
e 3 45
e 3 53
e 3 87
e 4 7
e 4 29
e 4 39
e 4 56
e 4 60
e 4 64
e 5 27
e 5 30
e 5 52
e 5 66
e 5 69
e 5 70
e 6 23
e 6 37
e 6 38
e 6 49
e 6 64
e 6 82
e 7 46
e 7 55
e 7 57
e 7 80
e 7 94
e 8 24
e 8 58
e 8 61
e 8 65
e 8 86
e 8 87
e 9 12
e 9 33
e 9 35
e 9 43
e 9 74
e 9 91
e 10 41
e 10 45
e 10 72
e 10 75
e 10 83
e 11 15
e 11 30
e 11 31
e 11 41
e 11 73
e 11 76
e 12 30
e 12 59
e 12 82
e 12 83
e 12 100
e 13 19
e 13 22
e 13 33
e 13 42
e 13 69
e 13 85
e 14 17
e 14 31
e 14 37
e 14 53
e 14 62
e 14 72
e 15 22
e 15 59
e 15 78
e 15 86
e 15 92
e 16 32
e 16 43
e 16 61
e 16 64
e 16 67
e 16 68
e 17 48
e 17 64
e 17 83
e 17 85
e 17 90
e 18 21
e 18 37
e 18 59
e 18 80
e 18 81
e 18 98
e 19 39
e 19 76
e 19 78
e 19 81
e 19 100
e 20 25
e 20 47
e 20 48
e 20 77
e 20 87
e 20 95
e 21 46
e 21 50
e 21 63
e 21 75
e 21 77
e 22 24
e 22 64
e 22 82
e 22 87
e 23 29
e 23 58
e 23 88
e 23 91
e 24 30
e 24 46
e 24 66
e 24 86
e 25 41
e 25 49
e 25 50
e 25 53
e 25 91
e 26 40
e 26 44
e 26 54
e 26 71
e 26 76
e 27 35
e 27 38
e 27 51
e 27 74
e 28 31
e 28 79
e 28 80
e 28 94
e 28 99
e 29 33
e 29 39
e 29 41
e 29 62
e 30 39
e 30 86
e 31 32
e 31 44
e 31 59
e 32 45
e 32 50
e 32 81
e 32 84
e 33 54
e 33 77
e 33 93
e 34 40
e 34 56
e 34 71
e 34 74
e 34 89
e 34 94
e 35 40
e 35 61
e 35 72
e 35 97
e 36 49
e 36 68
e 36 73
e 36 77
e 36 85
e 37 69
e 37 97
e 37 99
e 38 55
e 38 61
e 38 88
e 38 100
e 39 42
e 39 68
e 40 64
e 40 81
e 40 87
e 41 44
e 41 89
e 42 56
e 42 60
e 42 73
e 42 75
e 43 50
e 43 56
e 43 67
e 43 71
e 44 58
e 44 78
e 44 91
e 45 65
e 45 71
e 45 96
e 46 50
e 46 52
e 46 90
e 47 52
e 47 53
e 47 66
e 47 72
e 48 52
e 48 80
e 48 85
e 48 95
e 49 67
e 49 92
e 50 71
e 51 73
e 51 96
e 51 97
e 51 99
e 52 57
e 52 95
e 53 78
e 53 92
e 54 57
e 54 58
e 54 83
e 54 98
e 55 58
e 55 67
e 55 78
e 55 85
e 56 59
e 56 71
e 57 65
e 57 93
e 57 94
e 58 80
e 59 98
e 60 73
e 60 79
e 60 82
e 60 98
e 61 63
e 61 97
e 62 63
e 62 75
e 62 76
e 62 97
e 63 70
e 63 82
e 63 89
e 65 68
e 65 69
e 65 91
e 66 77
e 66 86
e 66 91
e 67 70
e 67 97
e 68 79
e 68 96
e 69 89
e 69 95
e 70 76
e 70 84
e 70 94
e 72 85
e 72 88
e 73 98
e 74 79
e 74 83
e 75 84
e 75 92
e 77 93
e 78 90
e 79 90
e 80 95
e 81 96
e 81 99
e 82 88
e 83 92
e 84 87
e 84 93
e 84 96
e 86 89
e 88 93
e 89 95
e 90 100
e 92 96
e 93 99
e 94 98
e 99 100
n 8 1
n 43 5
n 45 7
n 48 7
n 51 6
n 53 4
n 54 6
n 57 6
n 63 3
n 90 2
